0 98 
1 101 
2 104 
3 104 
4 108 
5 106 
6 103 
7 99 
8 98 
9 97 
10 96 
11 94 
12 92 
13 92 
14 91 
15 90 
16 85 
17 83 
18 78 
19 77 
20 76 
21 72 
22 70 
23 65 
24 63 
25 67 
26 66 
27 65 
28 60 
29 56 
30 56 
31 54 
32 55 
33 55 
34 53 
35 52 
36 53 
37 52 
38 53 
39 52 
40 49 
41 47 
42 50 
43 49 
44 48 
45 51 
46 50 
47 48 
48 47 
49 46 
50 43 
51 42 
52 41 
53 35 
54 39 
55 30 
56 31 
57 31 
58 30 
59 29 
60 31 
61 32 
62 33 
63 27 
64 26 
65 24 
66 23 
67 23 
68 21 
69 19 
70 18 
71 14 
72 12 
73 13 
74 11 
75 10 
76 7 
77 6 
78 4 
79 3 
80 3 
81 1 
82 1 
83 0 
84 0 

